000 000 000 000 -99 000 000 000 -99 -99 -99 -99 -99 000 -99 000 000 000 000 000 000 000 000 000 000 000 000 000 000 -99 -99
000 000 000 000 000 000 000 000 000 -99 -99 -99 -99 -99 000 000 000 000 -99 000 000 000 000 -99 000 000 000 000 -99 -99 -99
-99 000 000 000 000 000 000 000 000 000 -99 -99 -99 -99 000 000 000 000 000 000 000 000 000 000 -99 000 000 000 000 -99 000
000 000 000 000 000 000 000 000 000 000 -99 000 000 -99 000 000 000 000 000 000 000 000 000 000 -99 000 000 000 -99 -99 000
000 000 000 000 000 000 000 000 000 000 000 000 000 000 -99 000 -99 000 000 000 000 000 000 000 000 000 000 000 -99 -99 000
000 000 000 000 000 000 000 000 000 000 000 -99 000 000 -99 -99 -99 -99 000 000 000 000 000 000 000 000 -99 000 -99 -99 -99
000 000 000 000 000 000 000 000 000 000 -99 -99 000 000 -99 -99 -99 -99 -99 -99 000 000 000 000 000 000 -99 -99 -99 -99 -99
000 000 000 000 000 000 000 000 000 000 -99 -99 -99 -99 -99 -99 000 000 -99 -99 000 000 -99 000 000 000 -99 -99 -99 -99 -99
000 000 000 000 000 -99 -99 000 000 000 000 000 -99 -99 -99 -99 -99 000 000 -99 000 -99 000 000 000 000 000 000 -99 -99 -99
000 000 000 000 000 -99 -99 -99 -99 000 000 000 -99 -99 -99 -99 -99 000 000 -99 -99 -99 -99 000 000 000 000 000 -99 -99 -99
000 000 000 000 000 -99 000 000 000 000 000 000 000 -99 -99 -99 -99 000 000 000 -99 -99 -99 000 001 000 000 000 000 -99 000
000 000 000 000 000 000 000 000 000 000 000 000 -99 -99 -99 -99 -99 000 000 000 -99 -99 -99 000 002 000 000 000 000 -99 000
000 000 000 000 000 000 000 000 000 000 000 000 000 -99 -99 -99 -99 000 000 000 -99 -99 -99 000 001 000 000 000 000 -99 -99
000 000 000 000 000 000 000 000 000 -99 -99 000 000 -99 -99 -99 -99 000 000 -99 -99 -99 -99 000 000 000 000 -99 -99 -99 -99
000 000 000 000 000 000 000 000 000 -99 -99 -99 -99 000 000 -99 -99 -99 000 -99 -99 -99 -99 -99 000 000 000 000 000 -99 000
000 -99 000 000 000 000 000 000 000 -99 -99 -99 -99 000 000 -99 -99 -99 000 -99 -99 -99 -99 -99 000 000 000 000 -99 -99 -99
000 -99 -99 000 -99 000 000 000 000 -99 -99 -99 -99 000 000 000 -99 000 000 -99 -99 -99 -99 -99 000 000 000 000 000 000 -99
000 -99 000 -99 -99 000 000 000 000 -99 -99 -99 -99 -99 000 000 000 000 -99 -99 -99 -99 -99 -99 000 000 000 000 000 000 -99
000 000 000 000 -99 -99 -99 000 000 000 -99 -99 -99 -99 000 000 000 000 -99 -99 -99 -99 000 -99 -99 -99 000 000 -99 000 -99
000 000 000 000 -99 -99 -99 000 000 -99 -99 -99 -99 -99 000 000 000 000 000 000 000 -99 000 -99 -99 -99 -99 -99 -99 -99 -99
000 000 000 000 000 -99 -99 000 000 000 -99 -99 -99 -99 -99 000 000 000 000 000 000 -99 000 -99 -99 -99 -99 -99 -99 -99 -99
000 000 000 000 000 000 -99 000 000 000 -99 -99 -99 -99 -99 000 000 000 000 000 000 -99 000 -99 -99 -99 -99 -99 -99 -99 -99
000 000 000 000 000 000 -99 000 000 000 -99 -99 -99 000 000 000 000 000 000 000 000 000 000 -99 -99 -99 -99 -99 -99 -99 -99
000 000 000 000 000 000 000 000 000 000 -99 -99 000 000 000 000 000 000 000 000 000 000 000 -99 -99 -99 -99 -99 -99 -99 -99
000 000 000 000 000 000 000 000 000 000 000 -99 000 000 000 000 000 000 000 000 000 000 000 -99 -99 -99 -99 -99 -99 -99 -99
000 000 000 000 000 000 000 000 000 000 000 -99 -99 000 000 000 000 000 000 000 000 000 000 -99 -99 -99 -99 -99 -99 -99 -99
000 000 000 000 000 000 000 000 000 000 -99 -99 -99 -99 000 000 000 000 000 -99 -99 000 000 -99 -99 -99 -99 -99 -99 -99 -99
000 000 000 000 000 000 000 000 000 000 -99 -99 -99 -99 000 000 000 000 000 -99 000 000 000 -99 -99 -99 -99 -99 -99 -99 -99
000 000 000 000 000 000 000 000 000 000 -99 -99 -99 -99 000 000 000 000 000 000 000 000 -99 -99 -99 -99 -99 -99 -99 -99 -99
000 000 000 000 000 000 000 000 000 000 -99 -99 -99 000 000 000 000 000 000 000 000 000 -99 -99 000 -99 -99 -99 -99 -99 -99
000 000 000 000 000 000 000 000 000 000 -99 -99 -99 000 000 -99 000 000 000 000 -99 000 -99 000 000 -99 -99 -99 -99 -99 -99
000 000 000 000 000 -99 000 000 000 -99 -99 -99 -99 000 000 -99 000 000 000 -99 -99 000 000 000 000 000 -99 -99 -99 -99 -99
000 -99 000 000 -99 000 -99 000 000 000 -99 -99 -99 000 000 -99 000 000 000 -99 -99 000 000 000 000 000 -99 000 000 -99 000
000 000 000 000 000 000 000 000 000 000 -99 -99 -99 000 000 000 000 000 -99 -99 -99 -99 -99 000 000 000 -99 000 000 000 000
-99 000 000 000 000 000 000 000 000 000 -99 000 -99 -99 000 000 000 000 -99 000 000 -99 -99 000 000 000 000 000 000 000 000
000 000 000 000 000 000 000 000 000 -99 -99 000 000 -99 000 000 000 000 000 000 000 000 -99 000 000 000 000 000 000 000 000
000 000 -99 000 000 000 000 000 000 -99 -99 000 000 000 000 000 000 000 000 000 000 000 000 000 000 000 000 000 000 -99 000
000 -99 -99 000 000 000 000 000 000 -99 000 000 000 000 000 000 000 000 000 000 000 -99 -99 000 000 000 000 -99 -99 -99 000
-99 -99 000 000 000 000 -99 000 -99 -99 -99 -99 000 000 000 000 000 000 -99 000 000 -99 -99 000 000 000 000 -99 -99 -99 -99
-99 000 000 000 000 000 -99 -99 -99 -99 -99 -99 000 000 000 -99 000 000 -99 -99 -99 -99 -99 000 000 -99 -99 -99 -99 -99 000
000 000 000 000 000 000 -99 -99 -99 -99 000 000 000 000 000 -99 -99 -99 -99 -99 -99 -99 000 000 000 000 -99 -99 -99 -99 000
000 000 -99 000 -99 000 000 -99 -99 000 000 000 000 000 -99 -99 -99 -99 -99 -99 -99 -99 000 000 000 000 -99 -99 000 000 000
000 000 -99 -99 -99 000 000 -99 -99 000 000 000 000 000 000 000 -99 -99 000 000 000 000 000 000 000 000 000 -99 000 000 000
000 -99 000 -99 -99 000 -99 -99 -99 -99 000 000 000 000 000 000 000 000 000 000 000 000 000 000 000 000 000 000 000 -99 000
000 -99 -99 -99 002 005 002 -99 -99 -99 000 000 000 -99 000 -99 000 000 000 000 000 -99 000 000 000 000 000 000 000 -99 000
000 -99 -99 -99 000 005 -99 -99 -99 -99 000 000 000 000 -99 -99 -99 000 000 000 -99 -99 000 000 000 000 000 000 -99 -99 000
000 -99 -99 000 000 003 -99 -99 -99 -99 000 000 -99 -99 -99 -99 -99 000 000 000 -99 000 000 000 000 000 000 -99 -99 -99 000
-99 -99 -99 000 -99 -99 -99 -99 -99 -99 -99 -99 -99 -99 -99 -99 -99 000 000 -99 -99 000 000 000 000 000 000 -99 -99 -99 000
-99 -99 -99 -99 -99 -99 -99 -99 -99 -99 -99 -99 -99 -99 -99 -99 -99 000 000 -99 000 000 000 000 000 000 -99 -99 -99 -99 000
-99 -99 -99 -99 -99 -99 -99 -99 -99 -99 -99 -99 -99 -99 -99 -99 -99 000 000 -99 -99 000 000 000 000 -99 -99 -99 -99 -99 000
-99 -99 -99 -99 -99 -99 -99 000 000 -99 -99 -99 000 -99 -99 -99 -99 -99 -99 -99 -99 -99 -99 -99 -99 -99 -99 -99 -99 -99 -99
-99 -99 -99 -99 -99 -99 -99 -99 000 -99 -99 -99 000 000 -99 -99 -99 -99 -99 -99 -99 -99 -99 -99 -99 -99 -99 -99 -99 -99 -99
-99 -99 -99 -99 -99 -99 -99 -99 -99 -99 -99 -99 -99 -99 -99 -99 -99 -99 -99 -99 -99 -99 -99 -99 -99 -99 -99 -99 -99 -99 -99
-99 -99 -99 -99 -99 -99 -99 -99 -99 -99 -99 -99 -99 -99 -99 -99 000 -99 -99 -99 -99 -99 -99 -99 -99 -99 -99 -99 -99 -99 -99
-99 -99 -99 -99 -99 -99 -99 -99 -99 -99 -99 -99 -99 -99 -99 000 000 -99 -99 -99 -99 -99 -99 -99 -99 -99 -99 -99 -99 -99 -99
